proyfinal/src/viki/013/andrea/andrea-localstore/experimentInOfficeAgust.take6/worker_1/d9752ef7-0eff-46c0-834f-06fe721c7c76.als.cnf.out
Reading from standard input... Use '--help' for help.
============================[ Problem Statistics ]=============================
|                                                                             |
|  Number of variables:         87638                                         |
|  Number of clauses:          161767                                         |
|  Parse time:                   0.04 s                                       |
|                                                                             |
============================[ Search Statistics ]==============================
| Conflicts |          ORIGINAL         |          LEARNT          | Progress |
|           |    Vars  Clauses Literals |    Limit  Clauses Lit/Cl |          |
===============================================================================
|       100 |   62290   104797   261962 |    38425      100     42 | 28.924 % |
|       250 |   62290   104797   261962 |    42268      250     25 | 28.924 % |
|       475 |   62290   104797   261962 |    46494      475     62 | 28.924 % |
|       812 |   62290   104797   261962 |    51144      812     67 | 28.924 % |
|      1318 |   62270   104719   261772 |    56258     1316     94 | 28.946 % |
|      2077 |   62270   104719   261772 |    61884     2075    106 | 28.946 % |
|      3216 |   62204   104686   261688 |    68073     3211    106 | 29.022 % |
===============================================================================
restarts              : 21
conflicts             : 3930           (6625 /sec)
decisions             : 15641          (0.00 % random) (26366 /sec)
propagations          : 6205364        (10460318 /sec)
conflict literals     : 376226         (54.34 % deleted)
Memory used           : 23.23 MB
CPU time              : 0.593229 s

UNSATISFIABLE
